748.14 0
0 42 13 20 28 23 11 75 3 10 0
0 46 37 72 74 66 57 52 64 43 0
0 33 69 7 58 39 19 70 71 32 67 0
0 1 41 16 44 53 40 6 31 0
0 47 30 29 17 21 54 18 36 48 0
0 4 65 25 55 62 38 35 49 15 12 2 68 0
0 34 22 59 73 61 56 8 27 45 5 0
0 24 60 26 50 63 14 51 9 0